cases/matpower/case5_clm.m
[info | PowerModels]: extending matpower format with data: branch_currents 7x2
[info | PowerModels]: extending matpower format by appending matrix "branch_currents" in to "branch"
[warn | PowerModels]: the voltage setpoint on generator 4 does not match the value at bus 4
[warn | PowerModels]: the voltage setpoint on generator 1 does not match the value at bus 1
[warn | PowerModels]: the voltage setpoint on generator 5 does not match the value at bus 10
[warn | PowerModels]: the voltage setpoint on generator 2 does not match the value at bus 1
[warn | PowerModels]: the voltage setpoint on generator 3 does not match the value at bus 3
[info | PowerModels]: removing 1 cost terms from generator 4: [4000.0, 0.0]
[info | PowerModels]: removing 1 cost terms from generator 1: [1400.0, 0.0]
[info | PowerModels]: removing 1 cost terms from generator 5: [1000.0, 0.0]
[info | PowerModels]: removing 1 cost terms from generator 2: [1500.0, 0.0]
[info | PowerModels]: removing 1 cost terms from generator 3: [3000.0, 0.0]

******************************************************************************
This program contains Ipopt, a library for large-scale nonlinear optimization.
 Ipopt is released as open source code under the Eclipse Public License (EPL).
         For more information visit http://projects.coin-or.org/Ipopt
******************************************************************************

This is Ipopt version 3.13.2, running with linear solver mumps.
NOTE: Other linear solvers might be more efficient (see Ipopt documentation).

Number of nonzeros in equality constraint Jacobian...:      179
Number of nonzeros in inequality constraint Jacobian.:       24
Number of nonzeros in Lagrangian Hessian.............:      280

Total number of variables............................:       48
                     variables with only lower bounds:        0
                variables with lower and upper bounds:       43
                     variables with only upper bounds:        0
Total number of equality constraints.................:       39
Total number of inequality constraints...............:       12
        inequality constraints with only lower bounds:        6
   inequality constraints with lower and upper bounds:        0
        inequality constraints with only upper bounds:        6

iter    objective    inf_pr   inf_du lg(mu)  ||d||  lg(rg) alpha_du alpha_pr  ls
   0  1.0059989e+02 3.99e+00 2.89e+01  -1.0 0.00e+00    -  0.00e+00 0.00e+00   0
   1  8.1461538e+03 2.48e+00 1.02e+02  -1.0 2.56e+00    -  4.01e-03 3.79e-01h  1
   2  5.9622313e+03 2.41e+00 9.90e+01  -1.0 3.08e+01    -  4.45e-02 2.82e-02f  1
   3  5.3486048e+03 2.35e+00 9.56e+01  -1.0 2.00e+01    -  2.23e-01 2.44e-02f  1
   4  5.2830841e+03 2.20e+00 8.78e+01  -1.0 9.40e+00    -  5.08e-01 6.47e-02f  1
   5  8.1306655e+03 1.10e+00 4.40e+01  -1.0 5.33e+00    -  8.81e-01 5.01e-01h  1
   6  8.2528779e+03 1.07e+00 5.70e+01  -1.0 7.68e+00    -  1.71e-01 2.37e-02h  1
   7  8.5418475e+03 1.03e+00 4.55e+01  -1.0 1.09e+01    -  1.16e-02 4.18e-02h  1
   8  1.6067391e+04 5.60e-02 1.74e+01  -1.0 2.70e+00    -  8.10e-01 9.45e-01h  1
   9  1.6526042e+04 5.19e-03 1.73e+00  -1.0 4.35e-01    -  9.65e-01 1.00e+00h  1
iter    objective    inf_pr   inf_du lg(mu)  ||d||  lg(rg) alpha_du alpha_pr  ls
  10  1.6528294e+04 7.26e-05 5.24e-03  -1.0 1.04e-01    -  1.00e+00 1.00e+00h  1
  11  1.6500719e+04 2.47e-03 4.21e-01  -2.5 3.11e-01    -  8.99e-01 9.90e-01f  1
  12  1.6497583e+04 5.26e-03 1.67e-01  -2.5 1.53e-01    -  1.00e+00 1.00e+00h  1
  13  1.6497833e+04 3.19e-04 1.28e-02  -2.5 4.55e-02    -  1.00e+00 1.00e+00h  1
  14  1.6496972e+04 1.38e-04 5.66e-03  -3.8 2.70e-02    -  1.00e+00 1.00e+00h  1
  15  1.6496990e+04 1.42e-07 6.51e-06  -3.8 1.54e-03    -  1.00e+00 1.00e+00h  1
  16  1.6496943e+04 3.77e-07 1.70e-05  -5.7 1.55e-03    -  1.00e+00 1.00e+00h  1
  17  1.6496942e+04 2.73e-11 2.37e-09  -8.6 2.45e-05    -  1.00e+00 1.00e+00h  1

Number of Iterations....: 17

                                   (scaled)                 (unscaled)
Objective...............:   4.1242355187388824e+02    1.6496942074955528e+04
Dual infeasibility......:   2.3739232356324202e-09    9.4956929425296806e-08
Constraint violation....:   2.7346125364147156e-11    2.7346125364147156e-11
Complementarity.........:   2.7299111428325653e-09    1.0919644571330261e-07
Overall NLP error.......:   2.7299111428325653e-09    1.0919644571330261e-07


Number of objective function evaluations             = 18
Number of objective gradient evaluations             = 18
Number of equality constraint evaluations            = 18
Number of inequality constraint evaluations          = 18
Number of equality constraint Jacobian evaluations   = 18
Number of inequality constraint Jacobian evaluations = 18
Number of Lagrangian Hessian evaluations             = 17
Total CPU secs in IPOPT (w/o function evaluations)   =      2.158
Total CPU secs in NLP function evaluations           =      1.525

EXIT: Optimal Solution Found.
Time to Solution........:4.372457981109619
Final cost..............:
